c description: Perfect Matching Principle on 
c generator: CNFgen (0.9.0)
c copyright: (C) 2012-2020 Massimo Lauria <massimo.lauria@uniroma1.it>
c url: https://massimolauria.net/cnfgen
c
p cnf 160 1271
-1 -2 0
-1 -3 0
-1 -4 0
-1 -5 0
-1 -6 0
-1 -7 0
-1 -8 0
-1 -9 0
-1 -10 0
-1 -11 0
-2 -3 0
-2 -4 0
-2 -5 0
-2 -6 0
-2 -7 0
-2 -8 0
-2 -9 0
-2 -10 0
-2 -11 0
-3 -4 0
-3 -5 0
-3 -6 0
-3 -7 0
-3 -8 0
-3 -9 0
-3 -10 0
-3 -11 0
-4 -5 0
-4 -6 0
-4 -7 0
-4 -8 0
-4 -9 0
-4 -10 0
-4 -11 0
-5 -6 0
-5 -7 0
-5 -8 0
-5 -9 0
-5 -10 0
-5 -11 0
-6 -7 0
-6 -8 0
-6 -9 0
-6 -10 0
-6 -11 0
-7 -8 0
-7 -9 0
-7 -10 0
-7 -11 0
-8 -9 0
-8 -10 0
-8 -11 0
-9 -10 0
-9 -11 0
-10 -11 0
1 2 3 4 5 6 7 8 9 10 11 0
-1 -12 0
-1 -13 0
-1 -14 0
-1 -15 0
-1 -16 0
-1 -17 0
-12 -13 0
-12 -14 0
-12 -15 0
-12 -16 0
-12 -17 0
-13 -14 0
-13 -15 0
-13 -16 0
-13 -17 0
-14 -15 0
-14 -16 0
-14 -17 0
-15 -16 0
-15 -17 0
-16 -17 0
1 12 13 14 15 16 17 0
-2 -18 0
-2 -19 0
-2 -20 0
-2 -21 0
-2 -22 0
-2 -23 0
-2 -24 0
-2 -25 0
-18 -19 0
-18 -20 0
-18 -21 0
-18 -22 0
-18 -23 0
-18 -24 0
-18 -25 0
-19 -20 0
-19 -21 0
-19 -22 0
-19 -23 0
-19 -24 0
-19 -25 0
-20 -21 0
-20 -22 0
-20 -23 0
-20 -24 0
-20 -25 0
-21 -22 0
-21 -23 0
-21 -24 0
-21 -25 0
-22 -23 0
-22 -24 0
-22 -25 0
-23 -24 0
-23 -25 0
-24 -25 0
2 18 19 20 21 22 23 24 25 0
-12 -26 0
-12 -27 0
-12 -28 0
-12 -29 0
-12 -30 0
-12 -31 0
-12 -32 0
-12 -33 0
-26 -27 0
-26 -28 0
-26 -29 0
-26 -30 0
-26 -31 0
-26 -32 0
-26 -33 0
-27 -28 0
-27 -29 0
-27 -30 0
-27 -31 0
-27 -32 0
-27 -33 0
-28 -29 0
-28 -30 0
-28 -31 0
-28 -32 0
-28 -33 0
-29 -30 0
-29 -31 0
-29 -32 0
-29 -33 0
-30 -31 0
-30 -32 0
-30 -33 0
-31 -32 0
-31 -33 0
-32 -33 0
12 26 27 28 29 30 31 32 33 0
-34 -35 0
-34 -36 0
-34 -37 0
-34 -38 0
-34 -39 0
-34 -40 0
-35 -36 0
-35 -37 0
-35 -38 0
-35 -39 0
-35 -40 0
-36 -37 0
-36 -38 0
-36 -39 0
-36 -40 0
-37 -38 0
-37 -39 0
-37 -40 0
-38 -39 0
-38 -40 0
-39 -40 0
34 35 36 37 38 39 40 0
-41 -42 0
-41 -43 0
-41 -44 0
-41 -45 0
-41 -46 0
-41 -47 0
-41 -48 0
-41 -49 0
-41 -50 0
-42 -43 0
-42 -44 0
-42 -45 0
-42 -46 0
-42 -47 0
-42 -48 0
-42 -49 0
-42 -50 0
-43 -44 0
-43 -45 0
-43 -46 0
-43 -47 0
-43 -48 0
-43 -49 0
-43 -50 0
-44 -45 0
-44 -46 0
-44 -47 0
-44 -48 0
-44 -49 0
-44 -50 0
-45 -46 0
-45 -47 0
-45 -48 0
-45 -49 0
-45 -50 0
-46 -47 0
-46 -48 0
-46 -49 0
-46 -50 0
-47 -48 0
-47 -49 0
-47 -50 0
-48 -49 0
-48 -50 0
-49 -50 0
41 42 43 44 45 46 47 48 49 50 0
-18 -41 0
-18 -51 0
-18 -52 0
-18 -53 0
-18 -54 0
-18 -55 0
-18 -56 0
-18 -57 0
-18 -58 0
-41 -51 0
-41 -52 0
-41 -53 0
-41 -54 0
-41 -55 0
-41 -56 0
-41 -57 0
-41 -58 0
-51 -52 0
-51 -53 0
-51 -54 0
-51 -55 0
-51 -56 0
-51 -57 0
-51 -58 0
-52 -53 0
-52 -54 0
-52 -55 0
-52 -56 0
-52 -57 0
-52 -58 0
-53 -54 0
-53 -55 0
-53 -56 0
-53 -57 0
-53 -58 0
-54 -55 0
-54 -56 0
-54 -57 0
-54 -58 0
-55 -56 0
-55 -57 0
-55 -58 0
-56 -57 0
-56 -58 0
-57 -58 0
18 41 51 52 53 54 55 56 57 58 0
-26 -34 0
-26 -59 0
-26 -60 0
-26 -61 0
-34 -59 0
-34 -60 0
-34 -61 0
-59 -60 0
-59 -61 0
-60 -61 0
26 34 59 60 61 0
-27 -35 0
-27 -62 0
-27 -63 0
-27 -64 0
-27 -65 0
-27 -66 0
-27 -67 0
-35 -62 0
-35 -63 0
-35 -64 0
-35 -65 0
-35 -66 0
-35 -67 0
-62 -63 0
-62 -64 0
-62 -65 0
-62 -66 0
-62 -67 0
-63 -64 0
-63 -65 0
-63 -66 0
-63 -67 0
-64 -65 0
-64 -66 0
-64 -67 0
-65 -66 0
-65 -67 0
-66 -67 0
27 35 62 63 64 65 66 67 0
-36 -42 0
-36 -68 0
-36 -69 0
-36 -70 0
-42 -68 0
-42 -69 0
-42 -70 0
-68 -69 0
-68 -70 0
-69 -70 0
36 42 68 69 70 0
-3 -71 0
-3 -72 0
-3 -73 0
-3 -74 0
-71 -72 0
-71 -73 0
-71 -74 0
-72 -73 0
-72 -74 0
-73 -74 0
3 71 72 73 74 0
-28 -75 0
-28 -76 0
-28 -77 0
-28 -78 0
-28 -79 0
-28 -80 0
-28 -81 0
-28 -82 0
-28 -83 0
-75 -76 0
-75 -77 0
-75 -78 0
-75 -79 0
-75 -80 0
-75 -81 0
-75 -82 0
-75 -83 0
-76 -77 0
-76 -78 0
-76 -79 0
-76 -80 0
-76 -81 0
-76 -82 0
-76 -83 0
-77 -78 0
-77 -79 0
-77 -80 0
-77 -81 0
-77 -82 0
-77 -83 0
-78 -79 0
-78 -80 0
-78 -81 0
-78 -82 0
-78 -83 0
-79 -80 0
-79 -81 0
-79 -82 0
-79 -83 0
-80 -81 0
-80 -82 0
-80 -83 0
-81 -82 0
-81 -83 0
-82 -83 0
28 75 76 77 78 79 80 81 82 83 0
-4 -19 0
-4 -51 0
-4 -62 0
-4 -75 0
-4 -84 0
-19 -51 0
-19 -62 0
-19 -75 0
-19 -84 0
-51 -62 0
-51 -75 0
-51 -84 0
-62 -75 0
-62 -84 0
-75 -84 0
4 19 51 62 75 84 0
-5 -29 0
-5 -43 0
-5 -85 0
-5 -86 0
-5 -87 0
-5 -88 0
-29 -43 0
-29 -85 0
-29 -86 0
-29 -87 0
-29 -88 0
-43 -85 0
-43 -86 0
-43 -87 0
-43 -88 0
-85 -86 0
-85 -87 0
-85 -88 0
-86 -87 0
-86 -88 0
-87 -88 0
5 29 43 85 86 87 88 0
-6 -63 0
-6 -85 0
-6 -89 0
-6 -90 0
-6 -91 0
-6 -92 0
-6 -93 0
-6 -94 0
-63 -85 0
-63 -89 0
-63 -90 0
-63 -91 0
-63 -92 0
-63 -93 0
-63 -94 0
-85 -89 0
-85 -90 0
-85 -91 0
-85 -92 0
-85 -93 0
-85 -94 0
-89 -90 0
-89 -91 0
-89 -92 0
-89 -93 0
-89 -94 0
-90 -91 0
-90 -92 0
-90 -93 0
-90 -94 0
-91 -92 0
-91 -93 0
-91 -94 0
-92 -93 0
-92 -94 0
-93 -94 0
6 63 85 89 90 91 92 93 94 0
-7 -13 0
-7 -68 0
-7 -95 0
-7 -96 0
-7 -97 0
-7 -98 0
-13 -68 0
-13 -95 0
-13 -96 0
-13 -97 0
-13 -98 0
-68 -95 0
-68 -96 0
-68 -97 0
-68 -98 0
-95 -96 0
-95 -97 0
-95 -98 0
-96 -97 0
-96 -98 0
-97 -98 0
7 13 68 95 96 97 98 0
-14 -37 0
-14 -44 0
-14 -59 0
-14 -99 0
-14 -100 0
-14 -101 0
-14 -102 0
-14 -103 0
-37 -44 0
-37 -59 0
-37 -99 0
-37 -100 0
-37 -101 0
-37 -102 0
-37 -103 0
-44 -59 0
-44 -99 0
-44 -100 0
-44 -101 0
-44 -102 0
-44 -103 0
-59 -99 0
-59 -100 0
-59 -101 0
-59 -102 0
-59 -103 0
-99 -100 0
-99 -101 0
-99 -102 0
-99 -103 0
-100 -101 0
-100 -102 0
-100 -103 0
-101 -102 0
-101 -103 0
-102 -103 0
14 37 44 59 99 100 101 102 103 0
-8 -20 0
-8 -45 0
-8 -99 0
-8 -104 0
-8 -105 0
-8 -106 0
-8 -107 0
-20 -45 0
-20 -99 0
-20 -104 0
-20 -105 0
-20 -106 0
-20 -107 0
-45 -99 0
-45 -104 0
-45 -105 0
-45 -106 0
-45 -107 0
-99 -104 0
-99 -105 0
-99 -106 0
-99 -107 0
-104 -105 0
-104 -106 0
-104 -107 0
-105 -106 0
-105 -107 0
-106 -107 0
8 20 45 99 104 105 106 107 0
-46 -64 0
-46 -84 0
-46 -108 0
-46 -109 0
-46 -110 0
-46 -111 0
-64 -84 0
-64 -108 0
-64 -109 0
-64 -110 0
-64 -111 0
-84 -108 0
-84 -109 0
-84 -110 0
-84 -111 0
-108 -109 0
-108 -110 0
-108 -111 0
-109 -110 0
-109 -111 0
-110 -111 0
46 64 84 108 109 110 111 0
-21 -89 0
-21 -104 0
-21 -112 0
-21 -113 0
-21 -114 0
-21 -115 0
-21 -116 0
-21 -117 0
-21 -118 0
-89 -104 0
-89 -112 0
-89 -113 0
-89 -114 0
-89 -115 0
-89 -116 0
-89 -117 0
-89 -118 0
-104 -112 0
-104 -113 0
-104 -114 0
-104 -115 0
-104 -116 0
-104 -117 0
-104 -118 0
-112 -113 0
-112 -114 0
-112 -115 0
-112 -116 0
-112 -117 0
-112 -118 0
-113 -114 0
-113 -115 0
-113 -116 0
-113 -117 0
-113 -118 0
-114 -115 0
-114 -116 0
-114 -117 0
-114 -118 0
-115 -116 0
-115 -117 0
-115 -118 0
-116 -117 0
-116 -118 0
-117 -118 0
21 89 104 112 113 114 115 116 117 118 0
-30 -52 0
-30 -71 0
-30 -76 0
-30 -95 0
-30 -119 0
-30 -120 0
-52 -71 0
-52 -76 0
-52 -95 0
-52 -119 0
-52 -120 0
-71 -76 0
-71 -95 0
-71 -119 0
-71 -120 0
-76 -95 0
-76 -119 0
-76 -120 0
-95 -119 0
-95 -120 0
-119 -120 0
30 52 71 76 95 119 120 0
-31 -38 0
-31 -53 0
-31 -69 0
-31 -72 0
-31 -90 0
-31 -96 0
-31 -112 0
-31 -121 0
-31 -122 0
-31 -123 0
-31 -124 0
-38 -53 0
-38 -69 0
-38 -72 0
-38 -90 0
-38 -96 0
-38 -112 0
-38 -121 0
-38 -122 0
-38 -123 0
-38 -124 0
-53 -69 0
-53 -72 0
-53 -90 0
-53 -96 0
-53 -112 0
-53 -121 0
-53 -122 0
-53 -123 0
-53 -124 0
-69 -72 0
-69 -90 0
-69 -96 0
-69 -112 0
-69 -121 0
-69 -122 0
-69 -123 0
-69 -124 0
-72 -90 0
-72 -96 0
-72 -112 0
-72 -121 0
-72 -122 0
-72 -123 0
-72 -124 0
-90 -96 0
-90 -112 0
-90 -121 0
-90 -122 0
-90 -123 0
-90 -124 0
-96 -112 0
-96 -121 0
-96 -122 0
-96 -123 0
-96 -124 0
-112 -121 0
-112 -122 0
-112 -123 0
-112 -124 0
-121 -122 0
-121 -123 0
-121 -124 0
-122 -123 0
-122 -124 0
-123 -124 0
31 38 53 69 72 90 96 112 121 122 123 124 0
-54 -65 0
-54 -77 0
-54 -113 0
-54 -125 0
-54 -126 0
-54 -127 0
-54 -128 0
-54 -129 0
-54 -130 0
-54 -131 0
-65 -77 0
-65 -113 0
-65 -125 0
-65 -126 0
-65 -127 0
-65 -128 0
-65 -129 0
-65 -130 0
-65 -131 0
-77 -113 0
-77 -125 0
-77 -126 0
-77 -127 0
-77 -128 0
-77 -129 0
-77 -130 0
-77 -131 0
-113 -125 0
-113 -126 0
-113 -127 0
-113 -128 0
-113 -129 0
-113 -130 0
-113 -131 0
-125 -126 0
-125 -127 0
-125 -128 0
-125 -129 0
-125 -130 0
-125 -131 0
-126 -127 0
-126 -128 0
-126 -129 0
-126 -130 0
-126 -131 0
-127 -128 0
-127 -129 0
-127 -130 0
-127 -131 0
-128 -129 0
-128 -130 0
-128 -131 0
-129 -130 0
-129 -131 0
-130 -131 0
54 65 77 113 125 126 127 128 129 130 131 0
-47 -114 0
-47 -125 0
-47 -132 0
-47 -133 0
-47 -134 0
-114 -125 0
-114 -132 0
-114 -133 0
-114 -134 0
-125 -132 0
-125 -133 0
-125 -134 0
-132 -133 0
-132 -134 0
-133 -134 0
47 114 125 132 133 134 0
-9 -15 0
-9 -55 0
-9 -86 0
-9 -91 0
-9 -108 0
-9 -126 0
-9 -135 0
-9 -136 0
-9 -137 0
-9 -138 0
-9 -139 0
-9 -140 0
-15 -55 0
-15 -86 0
-15 -91 0
-15 -108 0
-15 -126 0
-15 -135 0
-15 -136 0
-15 -137 0
-15 -138 0
-15 -139 0
-15 -140 0
-55 -86 0
-55 -91 0
-55 -108 0
-55 -126 0
-55 -135 0
-55 -136 0
-55 -137 0
-55 -138 0
-55 -139 0
-55 -140 0
-86 -91 0
-86 -108 0
-86 -126 0
-86 -135 0
-86 -136 0
-86 -137 0
-86 -138 0
-86 -139 0
-86 -140 0
-91 -108 0
-91 -126 0
-91 -135 0
-91 -136 0
-91 -137 0
-91 -138 0
-91 -139 0
-91 -140 0
-108 -126 0
-108 -135 0
-108 -136 0
-108 -137 0
-108 -138 0
-108 -139 0
-108 -140 0
-126 -135 0
-126 -136 0
-126 -137 0
-126 -138 0
-126 -139 0
-126 -140 0
-135 -136 0
-135 -137 0
-135 -138 0
-135 -139 0
-135 -140 0
-136 -137 0
-136 -138 0
-136 -139 0
-136 -140 0
-137 -138 0
-137 -139 0
-137 -140 0
-138 -139 0
-138 -140 0
-139 -140 0
9 15 55 86 91 108 126 135 136 137 138 139 140 0
-48 -141 0
-48 -142 0
-141 -142 0
48 141 142 0
-78 -127 0
78 127 0
-22 -115 0
-22 -121 0
-22 -128 0
-22 -143 0
-22 -144 0
-22 -145 0
-22 -146 0
-115 -121 0
-115 -128 0
-115 -143 0
-115 -144 0
-115 -145 0
-115 -146 0
-121 -128 0
-121 -143 0
-121 -144 0
-121 -145 0
-121 -146 0
-128 -143 0
-128 -144 0
-128 -145 0
-128 -146 0
-143 -144 0
-143 -145 0
-143 -146 0
-144 -145 0
-144 -146 0
-145 -146 0
22 115 121 128 143 144 145 146 0
-56 -66 0
-56 -70 0
-56 -92 0
-56 -105 0
-56 -109 0
-56 -116 0
-56 -147 0
-56 -148 0
-56 -149 0
-56 -150 0
-66 -70 0
-66 -92 0
-66 -105 0
-66 -109 0
-66 -116 0
-66 -147 0
-66 -148 0
-66 -149 0
-66 -150 0
-70 -92 0
-70 -105 0
-70 -109 0
-70 -116 0
-70 -147 0
-70 -148 0
-70 -149 0
-70 -150 0
-92 -105 0
-92 -109 0
-92 -116 0
-92 -147 0
-92 -148 0
-92 -149 0
-92 -150 0
-105 -109 0
-105 -116 0
-105 -147 0
-105 -148 0
-105 -149 0
-105 -150 0
-109 -116 0
-109 -147 0
-109 -148 0
-109 -149 0
-109 -150 0
-116 -147 0
-116 -148 0
-116 -149 0
-116 -150 0
-147 -148 0
-147 -149 0
-147 -150 0
-148 -149 0
-148 -150 0
-149 -150 0
56 66 70 92 105 109 116 147 148 149 150 0
-32 -39 0
-32 -79 0
-32 -110 0
-32 -132 0
-32 -143 0
-32 -151 0
-39 -79 0
-39 -110 0
-39 -132 0
-39 -143 0
-39 -151 0
-79 -110 0
-79 -132 0
-79 -143 0
-79 -151 0
-110 -132 0
-110 -143 0
-110 -151 0
-132 -143 0
-132 -151 0
-143 -151 0
32 39 79 110 132 143 151 0
-97 -117 0
-97 -135 0
-97 -144 0
-97 -147 0
-97 -152 0
-97 -153 0
-97 -154 0
-117 -135 0
-117 -144 0
-117 -147 0
-117 -152 0
-117 -153 0
-117 -154 0
-135 -144 0
-135 -147 0
-135 -152 0
-135 -153 0
-135 -154 0
-144 -147 0
-144 -152 0
-144 -153 0
-144 -154 0
-147 -152 0
-147 -153 0
-147 -154 0
-152 -153 0
-152 -154 0
-153 -154 0
97 117 135 144 147 152 153 154 0
-57 -87 0
-57 -93 0
-57 -118 0
-57 -133 0
-57 -136 0
-57 -141 0
-57 -145 0
-57 -155 0
-87 -93 0
-87 -118 0
-87 -133 0
-87 -136 0
-87 -141 0
-87 -145 0
-87 -155 0
-93 -118 0
-93 -133 0
-93 -136 0
-93 -141 0
-93 -145 0
-93 -155 0
-118 -133 0
-118 -136 0
-118 -141 0
-118 -145 0
-118 -155 0
-133 -136 0
-133 -141 0
-133 -145 0
-133 -155 0
-136 -141 0
-136 -145 0
-136 -155 0
-141 -145 0
-141 -155 0
-145 -155 0
57 87 93 118 133 136 141 145 155 0
-23 -40 0
-23 -60 0
-23 -67 0
-23 -73 0
-23 -100 0
-23 -119 0
-23 -122 0
-23 -134 0
-23 -156 0
-23 -157 0
-40 -60 0
-40 -67 0
-40 -73 0
-40 -100 0
-40 -119 0
-40 -122 0
-40 -134 0
-40 -156 0
-40 -157 0
-60 -67 0
-60 -73 0
-60 -100 0
-60 -119 0
-60 -122 0
-60 -134 0
-60 -156 0
-60 -157 0
-67 -73 0
-67 -100 0
-67 -119 0
-67 -122 0
-67 -134 0
-67 -156 0
-67 -157 0
-73 -100 0
-73 -119 0
-73 -122 0
-73 -134 0
-73 -156 0
-73 -157 0
-100 -119 0
-100 -122 0
-100 -134 0
-100 -156 0
-100 -157 0
-119 -122 0
-119 -134 0
-119 -156 0
-119 -157 0
-122 -134 0
-122 -156 0
-122 -157 0
-134 -156 0
-134 -157 0
-156 -157 0
23 40 60 67 73 100 119 122 134 156 157 0
-61 -80 0
-61 -129 0
-61 -137 0
-61 -148 0
-61 -156 0
-61 -158 0
-80 -129 0
-80 -137 0
-80 -148 0
-80 -156 0
-80 -158 0
-129 -137 0
-129 -148 0
-129 -156 0
-129 -158 0
-137 -148 0
-137 -156 0
-137 -158 0
-148 -156 0
-148 -158 0
-156 -158 0
61 80 129 137 148 156 158 0
-16 -49 0
-16 -81 0
-16 -94 0
-16 -106 0
-16 -120 0
-16 -123 0
-16 -146 0
-49 -81 0
-49 -94 0
-49 -106 0
-49 -120 0
-49 -123 0
-49 -146 0
-81 -94 0
-81 -106 0
-81 -120 0
-81 -123 0
-81 -146 0
-94 -106 0
-94 -120 0
-94 -123 0
-94 -146 0
-106 -120 0
-106 -123 0
-106 -146 0
-120 -123 0
-120 -146 0
-123 -146 0
16 49 81 94 106 120 123 146 0
-50 -74 0
-50 -101 0
-50 -124 0
-50 -130 0
-50 -149 0
-50 -151 0
-50 -152 0
-74 -101 0
-74 -124 0
-74 -130 0
-74 -149 0
-74 -151 0
-74 -152 0
-101 -124 0
-101 -130 0
-101 -149 0
-101 -151 0
-101 -152 0
-124 -130 0
-124 -149 0
-124 -151 0
-124 -152 0
-130 -149 0
-130 -151 0
-130 -152 0
-149 -151 0
-149 -152 0
-151 -152 0
50 74 101 124 130 149 151 152 0
-17 -24 0
-17 -82 0
-17 -98 0
-17 -111 0
-17 -138 0
-17 -159 0
-24 -82 0
-24 -98 0
-24 -111 0
-24 -138 0
-24 -159 0
-82 -98 0
-82 -111 0
-82 -138 0
-82 -159 0
-98 -111 0
-98 -138 0
-98 -159 0
-111 -138 0
-111 -159 0
-138 -159 0
17 24 82 98 111 138 159 0
-10 -25 0
-10 -33 0
-10 -58 0
-10 -102 0
-10 -131 0
-10 -142 0
-10 -153 0
-10 -157 0
-10 -158 0
-10 -160 0
-25 -33 0
-25 -58 0
-25 -102 0
-25 -131 0
-25 -142 0
-25 -153 0
-25 -157 0
-25 -158 0
-25 -160 0
-33 -58 0
-33 -102 0
-33 -131 0
-33 -142 0
-33 -153 0
-33 -157 0
-33 -158 0
-33 -160 0
-58 -102 0
-58 -131 0
-58 -142 0
-58 -153 0
-58 -157 0
-58 -158 0
-58 -160 0
-102 -131 0
-102 -142 0
-102 -153 0
-102 -157 0
-102 -158 0
-102 -160 0
-131 -142 0
-131 -153 0
-131 -157 0
-131 -158 0
-131 -160 0
-142 -153 0
-142 -157 0
-142 -158 0
-142 -160 0
-153 -157 0
-153 -158 0
-153 -160 0
-157 -158 0
-157 -160 0
-158 -160 0
10 25 33 58 102 131 142 153 157 158 160 0
-11 -139 0
-11 -150 0
-11 -155 0
-11 -159 0
-139 -150 0
-139 -155 0
-139 -159 0
-150 -155 0
-150 -159 0
-155 -159 0
11 139 150 155 159 0
-83 -88 0
-83 -103 0
-83 -107 0
-83 -140 0
-83 -154 0
-83 -160 0
-88 -103 0
-88 -107 0
-88 -140 0
-88 -154 0
-88 -160 0
-103 -107 0
-103 -140 0
-103 -154 0
-103 -160 0
-107 -140 0
-107 -154 0
-107 -160 0
-140 -154 0
-140 -160 0
-154 -160 0
83 88 103 107 140 154 160 0